\ENCODING=ISO-8859-1
\Problem name: LP/crossvalidation_paper/er_n=103_m=525_p=0.10_SET2_setparam=100.00_alpha=0.75_4

Maximize
 obj1: 100 x0 + 100 x1 + 100 x2 + 100 x3 + 100 x4 + 100 x5 + 100 x6 + 100 x7
       + 100 x8 + 100 x9 + 100 x10 + 100 x11 + 100 x12 + 100 x13 + 100 x14
       + 100 x15 + 100 x16 + 100 x17 + 100 x18 + 100 x19 + 100 x20 + 100 x21
       + 100 x22 + 100 x23 + 100 x24 + 100 x25 + 100 x26 + 100 x27 + 100 x28
       + 100 x29 + 100 x30 + 100 x31 + 100 x32 + 100 x33 + 100 x34 + 100 x35
       + 100 x36 + 100 x37 + 100 x38 + 100 x39 + 100 x40 + 100 x41 + 100 x42
       + 100 x43 + 100 x44 + 100 x45 + 100 x46 + 100 x47 + 100 x48 + 100 x49
       + 100 x50 + 100 x51 + 100 x52 + 100 x53 + 100 x54 + 100 x55 + 100 x56
       + 100 x57 + 100 x58 + 100 x59 + 100 x60 + 100 x61 + 100 x62 + 100 x63
       + 100 x64 + 100 x65 + 100 x66 + 100 x67 + 100 x68 + 100 x69 + 100 x70
       + 100 x71 + 100 x72 + 100 x73 + 100 x74 + 100 x75 + 100 x76 + 100 x77
       + 100 x78 + 100 x79 + 100 x80 + 100 x81 + 100 x82 + 100 x83 + 100 x84
       + 100 x85 + 100 x86 + 100 x87 + 100 x88 + 100 x89 + 100 x90 + 100 x91
       + 100 x92 + 100 x93 + 100 x94 + 100 x95 + 100 x96 + 100 x97 + 100 x98
       + 100 x99 + 100 x100 + 100 x101 + 100 x102 - y14_74 - y29_50 - y13_70
       - y31_44 - y48_86 - y26_98 - y55_78 - y45_61 - y1_28 - y23_97 - y17_90
       - y43_76 - y44_86 - y52_63 - y20_32 - y12_69 - y0_67 - y22_42 - y54_87
       - y17_39 - y35_52 - y49_89 - y64_95 - y37_54 - y20_82 - y66_93 - y58_72
       - y45_71 - y35_70 - y82_87 - y28_63 - y22_45 - y5_43 - y3_55 - y10_47
       - y43_45 - y4_100 - y64_76 - y28_98 - y0_5 - y2_7 - y20_54 - y3_22
       - y27_53 - y37_77 - y74_97 - y23_33 - y81_90 - y3_77 - y28_67 - y5_79
       - y52_101 - y15_19 - y64_67 - y42_95 - y46_92 - y40_99 - y47_86 - y8_76
       - y33_68 - y3_31 - y8_82 - y3_37 - y27_32 - y62_70 - y86_88 - y8_33
       - y27_70 - y1_70 - y7_49 - y6_78 - y12_53 - y38_46 - y40_68 - y43_49
       - y67_82 - y19_67 - y8_89 - y45_76 - y43_100 - y62_73 - y82_90 - y37_89
       - y2_45 - y30_56 - y73_89 - y1_95 - y49_69 - y28_81 - y54_79 - y9_17
       - y18_60 - y66_91 - y57_88 - y67_97 - y80_87 - y35_72 - y32_70 - y59_94
       - y60_64 - y82_85 - y19_20 - y74_100 - y74_78 - y6_82 - y16_68 - y30_84
       - y15_50 - y22_75 - y34_101 - y23_69 - y80_100 - y34_95 - y26_32
       - y36_89 - y64_69 - y18_91 - y10_76 - y23_66 - y14_78 - y34_48 - y73_86
       - y51_78 - y0_102 - y7_51 - y28_84 - y40_70 - y53_76 - y7_64 - y17_94
       - y2_23 - y1_10 - y87_93 - y36_85 - y51_87 - y13_85 - y37_40 - y29_91
       - y63_95 - y79_81 - y12_46 - y5_89 - y6_89 - y31_99 - y7_87 - y57_64
       - y30_31 - y93_99 - y26_39 - y3_59 - y74_98 - y38_68 - y72_78 - y10_43
       - y31_36 - y29_84 - y26_86 - y51_66 - y74_86 - y22_87 - y19_83 - y24_44
       - y37_73 - y12_77 - y0_75 - y5_58 - y9_63 - y6_49 - y38_81 - y1_65
       - y0_97 - y40_65 - y3_87 - y11_23 - y20_74 - y76_95 - y43_77 - y32_76
       - y12_68 - y10_84 - y31_42 - y48_76 - y26_88 - y16_37 - y6_66 - y12_49
       - y40_72 - y7_66 - y41_76 - y6_100 - y45_55 - y43_66 - y90_98 - y69_84
       - y58_75 - y2_15 - y20_46 - y70_80 - y68_96 - y25_93 - y6_9 - y36_73
       - y26_77 - y20_88 - y55_93 - y28_31 - y85_90 - y18_101 - y50_102
       - y14_64 - y74_96 - y23_38 - y25_72 - y39_72 - y36_94 - y10_41 - y6_60
       - y4_68 - y43_57 - y20_77 - y8_75 - y0_49 - y51_54 - y80_88 - y5_30
       - y4_37 - y9_61 - y24_67 - y27_71 - y49_77 - y5_73 - y3_89 - y31_83
       - y69_79 - y67_83 - y30_101 - y42_99 - y71_73 - y45_77 - y14_82 - y27_38
       - y81_85 - y99_102 - y32_36 - y24_74 - y34_38 - y50_76 - y8_19 - y17_56
       - y13_50 - y76_80 - y42_64 - y40_80 - y45_53 - y35_99 - y25_57 - y45_70
       - y82_84 - y28_56 - y2_39 - y21_23 - y36_81 - y51_65 - y13_43 - y39_56
       - y57_98 - y18_99 - y73_98 - y4_18 - y28_55 - y12_82 - y4_56 - y28_45
       - y26_82 - y40_56 - y53_90 - y27_102 - y67_70 - y39_49 - y13_24 - y20_62
       - y10_79 - y34_89 - y98_101 - y20_36 - y30_44 - y35_42 - y27_89 - y33_46
       - y7_48 - y50_83 - y42_61 - y74_93 - y7_65 - y56_78 - y42_97 - y47_68
       - y71_75 - y23_88 - y19_40 - y0_32 - y46_48 - y1_45 - y60_74 - y58_63
       - y30_57 - y4_52 - y64_72 - y46_81 - y68_70 - y84_97 - y59_81 - y6_13
       - y21_43 - y35_81 - y22_32 - y29_59 - y49_87 - y20_100 - y44_93 - y14_34
       - y59_86 - y35_86 - y32_52 - y22_59 - y39_68 - y34_54 - y17_22 - y0_96
       - y28_94 - y40_64 - y39_51 - y30_102 - y32_85 - y71_76 - y68_82 - y8_85
       - y21_61 - y32_75 - y55_62 - y6_43 - y4_79 - y34_43 - y25_97 - y15_101
       - y31_95 - y11_13 - y43_89 - y35_68 - y61_102 - y59_90 - y1_35 - y21_32
       - y16_27 - y31_62 - y14_98 - y18_33 - y40_78 - y49_92 - y10_21 - y49_54
       - y50_53 - y18_74 - y8_67 - y33_77 - y9_73 - y10_89 - y60_67 - y5_22
       - y59_73 - y12_38 - y4_91 - y7_62 - y50_93 - y4_97 - y8_100 - y0_26
       - y40_97 - y12_26 - y53_97 - y21_72 - y0_48 - y33_70 - y96_100 - y18_95
       - y1_61 - y23_70
Subject To
 c1:   x0 + x5 - y0_5 <= 1
 c2:   x0 + x26 - y0_26 <= 1
 c3:   x0 + x32 - y0_32 <= 1
 c4:   x0 + x48 - y0_48 <= 1
 c5:   x0 + x49 - y0_49 <= 1
 c6:   x0 + x67 - y0_67 <= 1
 c7:   x0 + x75 - y0_75 <= 1
 c8:   x0 + x81 <= 1
 c9:   x0 + x96 - y0_96 <= 1
 c10:  x0 + x97 - y0_97 <= 1
 c11:  x0 + x102 - y0_102 <= 1
 c12:  x1 + x5 <= 1
 c13:  x1 + x6 <= 1
 c14:  x1 + x10 - y1_10 <= 1
 c15:  x1 + x22 <= 1
 c16:  x1 + x28 - y1_28 <= 1
 c17:  x1 + x35 - y1_35 <= 1
 c18:  x1 + x45 - y1_45 <= 1
 c19:  x1 + x61 - y1_61 <= 1
 c20:  x1 + x65 - y1_65 <= 1
 c21:  x1 + x70 - y1_70 <= 1
 c22:  x1 + x77 <= 1
 c23:  x1 + x79 <= 1
 c24:  x1 + x94 <= 1
 c25:  x1 + x95 - y1_95 <= 1
 c26:  x2 + x4 <= 1
 c27:  x2 + x7 - y2_7 <= 1
 c28:  x2 + x15 - y2_15 <= 1
 c29:  x2 + x23 - y2_23 <= 1
 c30:  x2 + x39 - y2_39 <= 1
 c31:  x2 + x45 - y2_45 <= 1
 c32:  x2 + x68 <= 1
 c33:  x2 + x77 <= 1
 c34:  x2 + x84 <= 1
 c35:  x2 + x85 <= 1
 c36:  x3 + x22 - y3_22 <= 1
 c37:  x3 + x31 - y3_31 <= 1
 c38:  x3 + x37 - y3_37 <= 1
 c39:  x3 + x55 - y3_55 <= 1
 c40:  x3 + x56 <= 1
 c41:  x3 + x59 - y3_59 <= 1
 c42:  x3 + x77 - y3_77 <= 1
 c43:  x3 + x87 - y3_87 <= 1
 c44:  x3 + x89 - y3_89 <= 1
 c45:  x4 + x18 - y4_18 <= 1
 c46:  x4 + x37 - y4_37 <= 1
 c47:  x4 + x44 <= 1
 c48:  x4 + x52 - y4_52 <= 1
 c49:  x4 + x56 - y4_56 <= 1
 c50:  x4 + x58 <= 1
 c51:  x4 + x68 - y4_68 <= 1
 c52:  x4 + x79 - y4_79 <= 1
 c53:  x4 + x91 - y4_91 <= 1
 c54:  x4 + x97 - y4_97 <= 1
 c55:  x4 + x100 - y4_100 <= 1
 c56:  x5 + x22 - y5_22 <= 1
 c57:  x5 + x26 <= 1
 c58:  x5 + x30 - y5_30 <= 1
 c59:  x5 + x43 - y5_43 <= 1
 c60:  x5 + x58 - y5_58 <= 1
 c61:  x5 + x73 - y5_73 <= 1
 c62:  x5 + x79 - y5_79 <= 1
 c63:  x5 + x89 - y5_89 <= 1
 c64:  x6 + x9 - y6_9 <= 1
 c65:  x6 + x13 - y6_13 <= 1
 c66:  x6 + x40 <= 1
 c67:  x6 + x43 - y6_43 <= 1
 c68:  x6 + x49 - y6_49 <= 1
 c69:  x6 + x60 - y6_60 <= 1
 c70:  x6 + x64 <= 1
 c71:  x6 + x66 - y6_66 <= 1
 c72:  x6 + x77 <= 1
 c73:  x6 + x78 - y6_78 <= 1
 c74:  x6 + x82 - y6_82 <= 1
 c75:  x6 + x89 - y6_89 <= 1
 c76:  x6 + x100 - y6_100 <= 1
 c77:  x7 + x46 <= 1
 c78:  x7 + x48 - y7_48 <= 1
 c79:  x7 + x49 - y7_49 <= 1
 c80:  x7 + x51 - y7_51 <= 1
 c81:  x7 + x62 - y7_62 <= 1
 c82:  x7 + x64 - y7_64 <= 1
 c83:  x7 + x65 - y7_65 <= 1
 c84:  x7 + x66 - y7_66 <= 1
 c85:  x7 + x75 <= 1
 c86:  x7 + x84 <= 1
 c87:  x7 + x87 - y7_87 <= 1
 c88:  x8 + x19 - y8_19 <= 1
 c89:  x8 + x33 - y8_33 <= 1
 c90:  x8 + x63 <= 1
 c91:  x8 + x67 - y8_67 <= 1
 c92:  x8 + x75 - y8_75 <= 1
 c93:  x8 + x76 - y8_76 <= 1
 c94:  x8 + x82 - y8_82 <= 1
 c95:  x8 + x85 - y8_85 <= 1
 c96:  x8 + x89 - y8_89 <= 1
 c97:  x8 + x100 - y8_100 <= 1
 c98:  x9 + x17 - y9_17 <= 1
 c99:  x9 + x40 <= 1
 c100: x9 + x59 <= 1
 c101: x9 + x61 - y9_61 <= 1
 c102: x9 + x63 - y9_63 <= 1
 c103: x9 + x73 - y9_73 <= 1
 c104: x9 + x87 <= 1
 c105: x10 + x21 - y10_21 <= 1
 c106: x10 + x41 - y10_41 <= 1
 c107: x10 + x43 - y10_43 <= 1
 c108: x10 + x47 - y10_47 <= 1
 c109: x10 + x53 <= 1
 c110: x10 + x76 - y10_76 <= 1
 c111: x10 + x79 - y10_79 <= 1
 c112: x10 + x84 - y10_84 <= 1
 c113: x10 + x89 - y10_89 <= 1
 c114: x11 + x13 - y11_13 <= 1
 c115: x11 + x17 <= 1
 c116: x11 + x23 - y11_23 <= 1
 c117: x11 + x86 <= 1
 c118: x12 + x26 - y12_26 <= 1
 c119: x12 + x38 - y12_38 <= 1
 c120: x12 + x46 - y12_46 <= 1
 c121: x12 + x49 - y12_49 <= 1
 c122: x12 + x53 - y12_53 <= 1
 c123: x12 + x68 - y12_68 <= 1
 c124: x12 + x69 - y12_69 <= 1
 c125: x12 + x77 - y12_77 <= 1
 c126: x12 + x82 - y12_82 <= 1
 c127: x13 + x24 - y13_24 <= 1
 c128: x13 + x43 - y13_43 <= 1
 c129: x13 + x50 - y13_50 <= 1
 c130: x13 + x70 - y13_70 <= 1
 c131: x13 + x85 - y13_85 <= 1
 c132: x14 + x28 <= 1
 c133: x14 + x34 - y14_34 <= 1
 c134: x14 + x64 - y14_64 <= 1
 c135: x14 + x74 - y14_74 <= 1
 c136: x14 + x76 <= 1
 c137: x14 + x78 - y14_78 <= 1
 c138: x14 + x82 - y14_82 <= 1
 c139: x14 + x98 - y14_98 <= 1
 c140: x15 + x18 <= 1
 c141: x15 + x19 - y15_19 <= 1
 c142: x15 + x46 <= 1
 c143: x15 + x50 - y15_50 <= 1
 c144: x15 + x101 - y15_101 <= 1
 c145: x16 + x27 - y16_27 <= 1
 c146: x16 + x37 - y16_37 <= 1
 c147: x16 + x59 <= 1
 c148: x16 + x68 - y16_68 <= 1
 c149: x17 + x18 <= 1
 c150: x17 + x22 - y17_22 <= 1
 c151: x17 + x39 - y17_39 <= 1
 c152: x17 + x56 - y17_56 <= 1
 c153: x17 + x77 <= 1
 c154: x17 + x90 - y17_90 <= 1
 c155: x17 + x94 - y17_94 <= 1
 c156: x18 + x33 - y18_33 <= 1
 c157: x18 + x45 <= 1
 c158: x18 + x59 <= 1
 c159: x18 + x60 - y18_60 <= 1
 c160: x18 + x74 - y18_74 <= 1
 c161: x18 + x91 - y18_91 <= 1
 c162: x18 + x92 <= 1
 c163: x18 + x95 - y18_95 <= 1
 c164: x18 + x99 - y18_99 <= 1
 c165: x18 + x101 - y18_101 <= 1
 c166: x19 + x20 - y19_20 <= 1
 c167: x19 + x40 - y19_40 <= 1
 c168: x19 + x55 <= 1
 c169: x19 + x67 - y19_67 <= 1
 c170: x19 + x68 <= 1
 c171: x19 + x69 <= 1
 c172: x19 + x83 - y19_83 <= 1
 c173: x20 + x32 - y20_32 <= 1
 c174: x20 + x36 - y20_36 <= 1
 c175: x20 + x46 - y20_46 <= 1
 c176: x20 + x54 - y20_54 <= 1
 c177: x20 + x60 <= 1
 c178: x20 + x62 - y20_62 <= 1
 c179: x20 + x74 - y20_74 <= 1
 c180: x20 + x77 - y20_77 <= 1
 c181: x20 + x82 - y20_82 <= 1
 c182: x20 + x88 - y20_88 <= 1
 c183: x20 + x96 <= 1
 c184: x20 + x100 - y20_100 <= 1
 c185: x21 + x23 - y21_23 <= 1
 c186: x21 + x32 - y21_32 <= 1
 c187: x21 + x34 <= 1
 c188: x21 + x43 - y21_43 <= 1
 c189: x21 + x61 - y21_61 <= 1
 c190: x21 + x68 <= 1
 c191: x21 + x72 - y21_72 <= 1
 c192: x21 + x94 <= 1
 c193: x22 + x28 <= 1
 c194: x22 + x32 - y22_32 <= 1
 c195: x22 + x42 - y22_42 <= 1
 c196: x22 + x45 - y22_45 <= 1
 c197: x22 + x59 - y22_59 <= 1
 c198: x22 + x75 - y22_75 <= 1
 c199: x22 + x87 - y22_87 <= 1
 c200: x22 + x99 <= 1
 c201: x23 + x33 - y23_33 <= 1
 c202: x23 + x38 - y23_38 <= 1
 c203: x23 + x41 <= 1
 c204: x23 + x61 <= 1
 c205: x23 + x66 - y23_66 <= 1
 c206: x23 + x69 - y23_69 <= 1
 c207: x23 + x70 - y23_70 <= 1
 c208: x23 + x73 <= 1
 c209: x23 + x88 - y23_88 <= 1
 c210: x23 + x97 - y23_97 <= 1
 c211: x24 + x38 <= 1
 c212: x24 + x44 - y24_44 <= 1
 c213: x24 + x46 <= 1
 c214: x24 + x58 <= 1
 c215: x24 + x67 - y24_67 <= 1
 c216: x24 + x74 - y24_74 <= 1
 c217: x24 + x102 <= 1
 c218: x25 + x42 <= 1
 c219: x25 + x57 - y25_57 <= 1
 c220: x25 + x67 <= 1
 c221: x25 + x72 - y25_72 <= 1
 c222: x25 + x93 - y25_93 <= 1
 c223: x25 + x97 - y25_97 <= 1
 c224: x26 + x32 - y26_32 <= 1
 c225: x26 + x36 <= 1
 c226: x26 + x39 - y26_39 <= 1
 c227: x26 + x64 <= 1
 c228: x26 + x77 - y26_77 <= 1
 c229: x26 + x82 - y26_82 <= 1
 c230: x26 + x86 - y26_86 <= 1
 c231: x26 + x88 - y26_88 <= 1
 c232: x26 + x98 - y26_98 <= 1
 c233: x27 + x32 - y27_32 <= 1
 c234: x27 + x38 - y27_38 <= 1
 c235: x27 + x52 <= 1
 c236: x27 + x53 - y27_53 <= 1
 c237: x27 + x60 <= 1
 c238: x27 + x70 - y27_70 <= 1
 c239: x27 + x71 - y27_71 <= 1
 c240: x27 + x89 - y27_89 <= 1
 c241: x27 + x102 - y27_102 <= 1
 c242: x28 + x31 - y28_31 <= 1
 c243: x28 + x40 <= 1
 c244: x28 + x45 - y28_45 <= 1
 c245: x28 + x55 - y28_55 <= 1
 c246: x28 + x56 - y28_56 <= 1
 c247: x28 + x63 - y28_63 <= 1
 c248: x28 + x67 - y28_67 <= 1
 c249: x28 + x81 - y28_81 <= 1
 c250: x28 + x84 - y28_84 <= 1
 c251: x28 + x93 <= 1
 c252: x28 + x94 - y28_94 <= 1
 c253: x28 + x98 - y28_98 <= 1
 c254: x29 + x39 <= 1
 c255: x29 + x50 - y29_50 <= 1
 c256: x29 + x53 <= 1
 c257: x29 + x58 <= 1
 c258: x29 + x59 - y29_59 <= 1
 c259: x29 + x78 <= 1
 c260: x29 + x84 - y29_84 <= 1
 c261: x29 + x91 - y29_91 <= 1
 c262: x30 + x31 - y30_31 <= 1
 c263: x30 + x44 - y30_44 <= 1
 c264: x30 + x56 - y30_56 <= 1
 c265: x30 + x57 - y30_57 <= 1
 c266: x30 + x61 <= 1
 c267: x30 + x84 - y30_84 <= 1
 c268: x30 + x101 - y30_101 <= 1
 c269: x30 + x102 - y30_102 <= 1
 c270: x31 + x36 - y31_36 <= 1
 c271: x31 + x42 - y31_42 <= 1
 c272: x31 + x44 - y31_44 <= 1
 c273: x31 + x51 <= 1
 c274: x31 + x62 - y31_62 <= 1
 c275: x31 + x70 <= 1
 c276: x31 + x83 - y31_83 <= 1
 c277: x31 + x86 <= 1
 c278: x31 + x95 - y31_95 <= 1
 c279: x31 + x99 - y31_99 <= 1
 c280: x32 + x35 <= 1
 c281: x32 + x36 - y32_36 <= 1
 c282: x32 + x52 - y32_52 <= 1
 c283: x32 + x70 - y32_70 <= 1
 c284: x32 + x74 <= 1
 c285: x32 + x75 - y32_75 <= 1
 c286: x32 + x76 - y32_76 <= 1
 c287: x32 + x81 <= 1
 c288: x32 + x85 - y32_85 <= 1
 c289: x33 + x46 - y33_46 <= 1
 c290: x33 + x48 <= 1
 c291: x33 + x68 - y33_68 <= 1
 c292: x33 + x70 - y33_70 <= 1
 c293: x33 + x76 <= 1
 c294: x33 + x77 - y33_77 <= 1
 c295: x33 + x102 <= 1
 c296: x34 + x38 - y34_38 <= 1
 c297: x34 + x39 <= 1
 c298: x34 + x41 <= 1
 c299: x34 + x43 - y34_43 <= 1
 c300: x34 + x48 - y34_48 <= 1
 c301: x34 + x50 <= 1
 c302: x34 + x54 - y34_54 <= 1
 c303: x34 + x63 <= 1
 c304: x34 + x89 - y34_89 <= 1
 c305: x34 + x93 <= 1
 c306: x34 + x95 - y34_95 <= 1
 c307: x34 + x97 <= 1
 c308: x34 + x101 - y34_101 <= 1
 c309: x35 + x42 - y35_42 <= 1
 c310: x35 + x52 - y35_52 <= 1
 c311: x35 + x68 - y35_68 <= 1
 c312: x35 + x70 - y35_70 <= 1
 c313: x35 + x72 - y35_72 <= 1
 c314: x35 + x81 - y35_81 <= 1
 c315: x35 + x86 - y35_86 <= 1
 c316: x35 + x97 <= 1
 c317: x35 + x99 - y35_99 <= 1
 c318: x36 + x50 <= 1
 c319: x36 + x73 - y36_73 <= 1
 c320: x36 + x81 - y36_81 <= 1
 c321: x36 + x85 - y36_85 <= 1
 c322: x36 + x89 - y36_89 <= 1
 c323: x36 + x90 <= 1
 c324: x36 + x94 - y36_94 <= 1
 c325: x37 + x40 - y37_40 <= 1
 c326: x37 + x53 <= 1
 c327: x37 + x54 - y37_54 <= 1
 c328: x37 + x73 - y37_73 <= 1
 c329: x37 + x77 - y37_77 <= 1
 c330: x37 + x89 - y37_89 <= 1
 c331: x38 + x46 - y38_46 <= 1
 c332: x38 + x60 <= 1
 c333: x38 + x68 - y38_68 <= 1
 c334: x38 + x81 - y38_81 <= 1
 c335: x38 + x95 <= 1
 c336: x38 + x99 <= 1
 c337: x38 + x101 <= 1
 c338: x39 + x49 - y39_49 <= 1
 c339: x39 + x51 - y39_51 <= 1
 c340: x39 + x56 - y39_56 <= 1
 c341: x39 + x68 - y39_68 <= 1
 c342: x39 + x72 - y39_72 <= 1
 c343: x39 + x100 <= 1
 c344: x40 + x56 - y40_56 <= 1
 c345: x40 + x64 - y40_64 <= 1
 c346: x40 + x65 - y40_65 <= 1
 c347: x40 + x68 - y40_68 <= 1
 c348: x40 + x70 - y40_70 <= 1
 c349: x40 + x72 - y40_72 <= 1
 c350: x40 + x78 - y40_78 <= 1
 c351: x40 + x80 - y40_80 <= 1
 c352: x40 + x97 - y40_97 <= 1
 c353: x40 + x99 - y40_99 <= 1
 c354: x41 + x49 <= 1
 c355: x41 + x76 - y41_76 <= 1
 c356: x41 + x92 <= 1
 c357: x42 + x61 - y42_61 <= 1
 c358: x42 + x64 - y42_64 <= 1
 c359: x42 + x87 <= 1
 c360: x42 + x95 - y42_95 <= 1
 c361: x42 + x97 - y42_97 <= 1
 c362: x42 + x99 - y42_99 <= 1
 c363: x43 + x45 - y43_45 <= 1
 c364: x43 + x49 - y43_49 <= 1
 c365: x43 + x57 - y43_57 <= 1
 c366: x43 + x66 - y43_66 <= 1
 c367: x43 + x76 - y43_76 <= 1
 c368: x43 + x77 - y43_77 <= 1
 c369: x43 + x89 - y43_89 <= 1
 c370: x43 + x100 - y43_100 <= 1
 c371: x44 + x47 <= 1
 c372: x44 + x86 - y44_86 <= 1
 c373: x44 + x93 - y44_93 <= 1
 c374: x45 + x53 - y45_53 <= 1
 c375: x45 + x55 - y45_55 <= 1
 c376: x45 + x61 - y45_61 <= 1
 c377: x45 + x70 - y45_70 <= 1
 c378: x45 + x71 - y45_71 <= 1
 c379: x45 + x75 <= 1
 c380: x45 + x76 - y45_76 <= 1
 c381: x45 + x77 - y45_77 <= 1
 c382: x46 + x48 - y46_48 <= 1
 c383: x46 + x81 - y46_81 <= 1
 c384: x46 + x92 - y46_92 <= 1
 c385: x47 + x68 - y47_68 <= 1
 c386: x47 + x85 <= 1
 c387: x47 + x86 - y47_86 <= 1
 c388: x48 + x76 - y48_76 <= 1
 c389: x48 + x86 - y48_86 <= 1
 c390: x49 + x51 <= 1
 c391: x49 + x54 - y49_54 <= 1
 c392: x49 + x69 - y49_69 <= 1
 c393: x49 + x77 - y49_77 <= 1
 c394: x49 + x87 - y49_87 <= 1
 c395: x49 + x89 - y49_89 <= 1
 c396: x49 + x92 - y49_92 <= 1
 c397: x49 + x94 <= 1
 c398: x50 + x53 - y50_53 <= 1
 c399: x50 + x75 <= 1
 c400: x50 + x76 - y50_76 <= 1
 c401: x50 + x83 - y50_83 <= 1
 c402: x50 + x87 <= 1
 c403: x50 + x93 - y50_93 <= 1
 c404: x50 + x102 - y50_102 <= 1
 c405: x51 + x54 - y51_54 <= 1
 c406: x51 + x65 - y51_65 <= 1
 c407: x51 + x66 - y51_66 <= 1
 c408: x51 + x78 - y51_78 <= 1
 c409: x51 + x87 - y51_87 <= 1
 c410: x52 + x57 <= 1
 c411: x52 + x63 - y52_63 <= 1
 c412: x52 + x68 <= 1
 c413: x52 + x80 <= 1
 c414: x52 + x101 - y52_101 <= 1
 c415: x53 + x76 - y53_76 <= 1
 c416: x53 + x89 <= 1
 c417: x53 + x90 - y53_90 <= 1
 c418: x53 + x97 - y53_97 <= 1
 c419: x53 + x102 <= 1
 c420: x54 + x79 - y54_79 <= 1
 c421: x54 + x84 <= 1
 c422: x54 + x87 - y54_87 <= 1
 c423: x54 + x94 <= 1
 c424: x54 + x99 <= 1
 c425: x55 + x62 - y55_62 <= 1
 c426: x55 + x78 - y55_78 <= 1
 c427: x55 + x93 - y55_93 <= 1
 c428: x56 + x78 - y56_78 <= 1
 c429: x57 + x61 <= 1
 c430: x57 + x64 - y57_64 <= 1
 c431: x57 + x88 - y57_88 <= 1
 c432: x57 + x98 - y57_98 <= 1
 c433: x57 + x100 <= 1
 c434: x58 + x60 <= 1
 c435: x58 + x63 - y58_63 <= 1
 c436: x58 + x72 - y58_72 <= 1
 c437: x58 + x75 - y58_75 <= 1
 c438: x59 + x61 <= 1
 c439: x59 + x73 - y59_73 <= 1
 c440: x59 + x81 - y59_81 <= 1
 c441: x59 + x86 - y59_86 <= 1
 c442: x59 + x90 - y59_90 <= 1
 c443: x59 + x94 - y59_94 <= 1
 c444: x60 + x64 - y60_64 <= 1
 c445: x60 + x67 - y60_67 <= 1
 c446: x60 + x74 - y60_74 <= 1
 c447: x60 + x84 <= 1
 c448: x60 + x85 <= 1
 c449: x60 + x90 <= 1
 c450: x61 + x102 - y61_102 <= 1
 c451: x62 + x70 - y62_70 <= 1
 c452: x62 + x73 - y62_73 <= 1
 c453: x62 + x81 <= 1
 c454: x62 + x84 <= 1
 c455: x63 + x75 <= 1
 c456: x63 + x95 - y63_95 <= 1
 c457: x64 + x67 - y64_67 <= 1
 c458: x64 + x69 - y64_69 <= 1
 c459: x64 + x72 - y64_72 <= 1
 c460: x64 + x76 - y64_76 <= 1
 c461: x64 + x95 - y64_95 <= 1
 c462: x64 + x97 <= 1
 c463: x66 + x80 <= 1
 c464: x66 + x91 - y66_91 <= 1
 c465: x66 + x93 - y66_93 <= 1
 c466: x67 + x70 - y67_70 <= 1
 c467: x67 + x82 - y67_82 <= 1
 c468: x67 + x83 - y67_83 <= 1
 c469: x67 + x97 - y67_97 <= 1
 c470: x68 + x70 - y68_70 <= 1
 c471: x68 + x82 - y68_82 <= 1
 c472: x68 + x96 - y68_96 <= 1
 c473: x69 + x79 - y69_79 <= 1
 c474: x69 + x84 - y69_84 <= 1
 c475: x70 + x80 - y70_80 <= 1
 c476: x71 + x73 - y71_73 <= 1
 c477: x71 + x75 - y71_75 <= 1
 c478: x71 + x76 - y71_76 <= 1
 c479: x71 + x92 <= 1
 c480: x72 + x78 - y72_78 <= 1
 c481: x72 + x81 <= 1
 c482: x72 + x85 <= 1
 c483: x72 + x92 <= 1
 c484: x73 + x86 - y73_86 <= 1
 c485: x73 + x88 <= 1
 c486: x73 + x89 - y73_89 <= 1
 c487: x73 + x98 - y73_98 <= 1
 c488: x74 + x78 - y74_78 <= 1
 c489: x74 + x86 - y74_86 <= 1
 c490: x74 + x93 - y74_93 <= 1
 c491: x74 + x96 - y74_96 <= 1
 c492: x74 + x97 - y74_97 <= 1
 c493: x74 + x98 - y74_98 <= 1
 c494: x74 + x100 - y74_100 <= 1
 c495: x75 + x81 <= 1
 c496: x75 + x87 <= 1
 c497: x76 + x80 - y76_80 <= 1
 c498: x76 + x95 - y76_95 <= 1
 c499: x78 + x79 <= 1
 c500: x79 + x81 - y79_81 <= 1
 c501: x80 + x87 - y80_87 <= 1
 c502: x80 + x88 - y80_88 <= 1
 c503: x80 + x94 <= 1
 c504: x80 + x100 - y80_100 <= 1
 c505: x81 + x85 - y81_85 <= 1
 c506: x81 + x90 - y81_90 <= 1
 c507: x82 + x84 - y82_84 <= 1
 c508: x82 + x85 - y82_85 <= 1
 c509: x82 + x87 - y82_87 <= 1
 c510: x82 + x90 - y82_90 <= 1
 c511: x84 + x93 <= 1
 c512: x84 + x97 - y84_97 <= 1
 c513: x84 + x101 <= 1
 c514: x85 + x90 - y85_90 <= 1
 c515: x86 + x88 - y86_88 <= 1
 c516: x87 + x93 - y87_93 <= 1
 c517: x90 + x98 - y90_98 <= 1
 c518: x91 + x96 <= 1
 c519: x91 + x101 <= 1
 c520: x93 + x99 - y93_99 <= 1
 c521: x94 + x95 <= 1
 c522: x94 + x100 <= 1
 c523: x96 + x100 - y96_100 <= 1
 c524: x98 + x101 - y98_101 <= 1
 c525: x99 + x102 - y99_102 <= 1
Bounds
 0 <= x0 <= 1
 0 <= x1 <= 1
 0 <= x2 <= 1
 0 <= x3 <= 1
 0 <= x4 <= 1
 0 <= x5 <= 1
 0 <= x6 <= 1
 0 <= x7 <= 1
 0 <= x8 <= 1
 0 <= x9 <= 1
 0 <= x10 <= 1
 0 <= x11 <= 1
 0 <= x12 <= 1
 0 <= x13 <= 1
 0 <= x14 <= 1
 0 <= x15 <= 1
 0 <= x16 <= 1
 0 <= x17 <= 1
 0 <= x18 <= 1
 0 <= x19 <= 1
 0 <= x20 <= 1
 0 <= x21 <= 1
 0 <= x22 <= 1
 0 <= x23 <= 1
 0 <= x24 <= 1
 0 <= x25 <= 1
 0 <= x26 <= 1
 0 <= x27 <= 1
 0 <= x28 <= 1
 0 <= x29 <= 1
 0 <= x30 <= 1
 0 <= x31 <= 1
 0 <= x32 <= 1
 0 <= x33 <= 1
 0 <= x34 <= 1
 0 <= x35 <= 1
 0 <= x36 <= 1
 0 <= x37 <= 1
 0 <= x38 <= 1
 0 <= x39 <= 1
 0 <= x40 <= 1
 0 <= x41 <= 1
 0 <= x42 <= 1
 0 <= x43 <= 1
 0 <= x44 <= 1
 0 <= x45 <= 1
 0 <= x46 <= 1
 0 <= x47 <= 1
 0 <= x48 <= 1
 0 <= x49 <= 1
 0 <= x50 <= 1
 0 <= x51 <= 1
 0 <= x52 <= 1
 0 <= x53 <= 1
 0 <= x54 <= 1
 0 <= x55 <= 1
 0 <= x56 <= 1
 0 <= x57 <= 1
 0 <= x58 <= 1
 0 <= x59 <= 1
 0 <= x60 <= 1
 0 <= x61 <= 1
 0 <= x62 <= 1
 0 <= x63 <= 1
 0 <= x64 <= 1
 0 <= x65 <= 1
 0 <= x66 <= 1
 0 <= x67 <= 1
 0 <= x68 <= 1
 0 <= x69 <= 1
 0 <= x70 <= 1
 0 <= x71 <= 1
 0 <= x72 <= 1
 0 <= x73 <= 1
 0 <= x74 <= 1
 0 <= x75 <= 1
 0 <= x76 <= 1
 0 <= x77 <= 1
 0 <= x78 <= 1
 0 <= x79 <= 1
 0 <= x80 <= 1
 0 <= x81 <= 1
 0 <= x82 <= 1
 0 <= x83 <= 1
 0 <= x84 <= 1
 0 <= x85 <= 1
 0 <= x86 <= 1
 0 <= x87 <= 1
 0 <= x88 <= 1
 0 <= x89 <= 1
 0 <= x90 <= 1
 0 <= x91 <= 1
 0 <= x92 <= 1
 0 <= x93 <= 1
 0 <= x94 <= 1
 0 <= x95 <= 1
 0 <= x96 <= 1
 0 <= x97 <= 1
 0 <= x98 <= 1
 0 <= x99 <= 1
 0 <= x100 <= 1
 0 <= x101 <= 1
 0 <= x102 <= 1
 0 <= y14_74 <= 1
 0 <= y29_50 <= 1
 0 <= y13_70 <= 1
 0 <= y31_44 <= 1
 0 <= y48_86 <= 1
 0 <= y26_98 <= 1
 0 <= y55_78 <= 1
 0 <= y45_61 <= 1
 0 <= y1_28 <= 1
 0 <= y23_97 <= 1
 0 <= y17_90 <= 1
 0 <= y43_76 <= 1
 0 <= y44_86 <= 1
 0 <= y52_63 <= 1
 0 <= y20_32 <= 1
 0 <= y12_69 <= 1
 0 <= y0_67 <= 1
 0 <= y22_42 <= 1
 0 <= y54_87 <= 1
 0 <= y17_39 <= 1
 0 <= y35_52 <= 1
 0 <= y49_89 <= 1
 0 <= y64_95 <= 1
 0 <= y37_54 <= 1
 0 <= y20_82 <= 1
 0 <= y66_93 <= 1
 0 <= y58_72 <= 1
 0 <= y45_71 <= 1
 0 <= y35_70 <= 1
 0 <= y82_87 <= 1
 0 <= y28_63 <= 1
 0 <= y22_45 <= 1
 0 <= y5_43 <= 1
 0 <= y3_55 <= 1
 0 <= y10_47 <= 1
 0 <= y43_45 <= 1
 0 <= y4_100 <= 1
 0 <= y64_76 <= 1
 0 <= y28_98 <= 1
 0 <= y0_5 <= 1
 0 <= y2_7 <= 1
 0 <= y20_54 <= 1
 0 <= y3_22 <= 1
 0 <= y27_53 <= 1
 0 <= y37_77 <= 1
 0 <= y74_97 <= 1
 0 <= y23_33 <= 1
 0 <= y81_90 <= 1
 0 <= y3_77 <= 1
 0 <= y28_67 <= 1
 0 <= y5_79 <= 1
 0 <= y52_101 <= 1
 0 <= y15_19 <= 1
 0 <= y64_67 <= 1
 0 <= y42_95 <= 1
 0 <= y46_92 <= 1
 0 <= y40_99 <= 1
 0 <= y47_86 <= 1
 0 <= y8_76 <= 1
 0 <= y33_68 <= 1
 0 <= y3_31 <= 1
 0 <= y8_82 <= 1
 0 <= y3_37 <= 1
 0 <= y27_32 <= 1
 0 <= y62_70 <= 1
 0 <= y86_88 <= 1
 0 <= y8_33 <= 1
 0 <= y27_70 <= 1
 0 <= y1_70 <= 1
 0 <= y7_49 <= 1
 0 <= y6_78 <= 1
 0 <= y12_53 <= 1
 0 <= y38_46 <= 1
 0 <= y40_68 <= 1
 0 <= y43_49 <= 1
 0 <= y67_82 <= 1
 0 <= y19_67 <= 1
 0 <= y8_89 <= 1
 0 <= y45_76 <= 1
 0 <= y43_100 <= 1
 0 <= y62_73 <= 1
 0 <= y82_90 <= 1
 0 <= y37_89 <= 1
 0 <= y2_45 <= 1
 0 <= y30_56 <= 1
 0 <= y73_89 <= 1
 0 <= y1_95 <= 1
 0 <= y49_69 <= 1
 0 <= y28_81 <= 1
 0 <= y54_79 <= 1
 0 <= y9_17 <= 1
 0 <= y18_60 <= 1
 0 <= y66_91 <= 1
 0 <= y57_88 <= 1
 0 <= y67_97 <= 1
 0 <= y80_87 <= 1
 0 <= y35_72 <= 1
 0 <= y32_70 <= 1
 0 <= y59_94 <= 1
 0 <= y60_64 <= 1
 0 <= y82_85 <= 1
 0 <= y19_20 <= 1
 0 <= y74_100 <= 1
 0 <= y74_78 <= 1
 0 <= y6_82 <= 1
 0 <= y16_68 <= 1
 0 <= y30_84 <= 1
 0 <= y15_50 <= 1
 0 <= y22_75 <= 1
 0 <= y34_101 <= 1
 0 <= y23_69 <= 1
 0 <= y80_100 <= 1
 0 <= y34_95 <= 1
 0 <= y26_32 <= 1
 0 <= y36_89 <= 1
 0 <= y64_69 <= 1
 0 <= y18_91 <= 1
 0 <= y10_76 <= 1
 0 <= y23_66 <= 1
 0 <= y14_78 <= 1
 0 <= y34_48 <= 1
 0 <= y73_86 <= 1
 0 <= y51_78 <= 1
 0 <= y0_102 <= 1
 0 <= y7_51 <= 1
 0 <= y28_84 <= 1
 0 <= y40_70 <= 1
 0 <= y53_76 <= 1
 0 <= y7_64 <= 1
 0 <= y17_94 <= 1
 0 <= y2_23 <= 1
 0 <= y1_10 <= 1
 0 <= y87_93 <= 1
 0 <= y36_85 <= 1
 0 <= y51_87 <= 1
 0 <= y13_85 <= 1
 0 <= y37_40 <= 1
 0 <= y29_91 <= 1
 0 <= y63_95 <= 1
 0 <= y79_81 <= 1
 0 <= y12_46 <= 1
 0 <= y5_89 <= 1
 0 <= y6_89 <= 1
 0 <= y31_99 <= 1
 0 <= y7_87 <= 1
 0 <= y57_64 <= 1
 0 <= y30_31 <= 1
 0 <= y93_99 <= 1
 0 <= y26_39 <= 1
 0 <= y3_59 <= 1
 0 <= y74_98 <= 1
 0 <= y38_68 <= 1
 0 <= y72_78 <= 1
 0 <= y10_43 <= 1
 0 <= y31_36 <= 1
 0 <= y29_84 <= 1
 0 <= y26_86 <= 1
 0 <= y51_66 <= 1
 0 <= y74_86 <= 1
 0 <= y22_87 <= 1
 0 <= y19_83 <= 1
 0 <= y24_44 <= 1
 0 <= y37_73 <= 1
 0 <= y12_77 <= 1
 0 <= y0_75 <= 1
 0 <= y5_58 <= 1
 0 <= y9_63 <= 1
 0 <= y6_49 <= 1
 0 <= y38_81 <= 1
 0 <= y1_65 <= 1
 0 <= y0_97 <= 1
 0 <= y40_65 <= 1
 0 <= y3_87 <= 1
 0 <= y11_23 <= 1
 0 <= y20_74 <= 1
 0 <= y76_95 <= 1
 0 <= y43_77 <= 1
 0 <= y32_76 <= 1
 0 <= y12_68 <= 1
 0 <= y10_84 <= 1
 0 <= y31_42 <= 1
 0 <= y48_76 <= 1
 0 <= y26_88 <= 1
 0 <= y16_37 <= 1
 0 <= y6_66 <= 1
 0 <= y12_49 <= 1
 0 <= y40_72 <= 1
 0 <= y7_66 <= 1
 0 <= y41_76 <= 1
 0 <= y6_100 <= 1
 0 <= y45_55 <= 1
 0 <= y43_66 <= 1
 0 <= y90_98 <= 1
 0 <= y69_84 <= 1
 0 <= y58_75 <= 1
 0 <= y2_15 <= 1
 0 <= y20_46 <= 1
 0 <= y70_80 <= 1
 0 <= y68_96 <= 1
 0 <= y25_93 <= 1
 0 <= y6_9 <= 1
 0 <= y36_73 <= 1
 0 <= y26_77 <= 1
 0 <= y20_88 <= 1
 0 <= y55_93 <= 1
 0 <= y28_31 <= 1
 0 <= y85_90 <= 1
 0 <= y18_101 <= 1
 0 <= y50_102 <= 1
 0 <= y14_64 <= 1
 0 <= y74_96 <= 1
 0 <= y23_38 <= 1
 0 <= y25_72 <= 1
 0 <= y39_72 <= 1
 0 <= y36_94 <= 1
 0 <= y10_41 <= 1
 0 <= y6_60 <= 1
 0 <= y4_68 <= 1
 0 <= y43_57 <= 1
 0 <= y20_77 <= 1
 0 <= y8_75 <= 1
 0 <= y0_49 <= 1
 0 <= y51_54 <= 1
 0 <= y80_88 <= 1
 0 <= y5_30 <= 1
 0 <= y4_37 <= 1
 0 <= y9_61 <= 1
 0 <= y24_67 <= 1
 0 <= y27_71 <= 1
 0 <= y49_77 <= 1
 0 <= y5_73 <= 1
 0 <= y3_89 <= 1
 0 <= y31_83 <= 1
 0 <= y69_79 <= 1
 0 <= y67_83 <= 1
 0 <= y30_101 <= 1
 0 <= y42_99 <= 1
 0 <= y71_73 <= 1
 0 <= y45_77 <= 1
 0 <= y14_82 <= 1
 0 <= y27_38 <= 1
 0 <= y81_85 <= 1
 0 <= y99_102 <= 1
 0 <= y32_36 <= 1
 0 <= y24_74 <= 1
 0 <= y34_38 <= 1
 0 <= y50_76 <= 1
 0 <= y8_19 <= 1
 0 <= y17_56 <= 1
 0 <= y13_50 <= 1
 0 <= y76_80 <= 1
 0 <= y42_64 <= 1
 0 <= y40_80 <= 1
 0 <= y45_53 <= 1
 0 <= y35_99 <= 1
 0 <= y25_57 <= 1
 0 <= y45_70 <= 1
 0 <= y82_84 <= 1
 0 <= y28_56 <= 1
 0 <= y2_39 <= 1
 0 <= y21_23 <= 1
 0 <= y36_81 <= 1
 0 <= y51_65 <= 1
 0 <= y13_43 <= 1
 0 <= y39_56 <= 1
 0 <= y57_98 <= 1
 0 <= y18_99 <= 1
 0 <= y73_98 <= 1
 0 <= y4_18 <= 1
 0 <= y28_55 <= 1
 0 <= y12_82 <= 1
 0 <= y4_56 <= 1
 0 <= y28_45 <= 1
 0 <= y26_82 <= 1
 0 <= y40_56 <= 1
 0 <= y53_90 <= 1
 0 <= y27_102 <= 1
 0 <= y67_70 <= 1
 0 <= y39_49 <= 1
 0 <= y13_24 <= 1
 0 <= y20_62 <= 1
 0 <= y10_79 <= 1
 0 <= y34_89 <= 1
 0 <= y98_101 <= 1
 0 <= y20_36 <= 1
 0 <= y30_44 <= 1
 0 <= y35_42 <= 1
 0 <= y27_89 <= 1
 0 <= y33_46 <= 1
 0 <= y7_48 <= 1
 0 <= y50_83 <= 1
 0 <= y42_61 <= 1
 0 <= y74_93 <= 1
 0 <= y7_65 <= 1
 0 <= y56_78 <= 1
 0 <= y42_97 <= 1
 0 <= y47_68 <= 1
 0 <= y71_75 <= 1
 0 <= y23_88 <= 1
 0 <= y19_40 <= 1
 0 <= y0_32 <= 1
 0 <= y46_48 <= 1
 0 <= y1_45 <= 1
 0 <= y60_74 <= 1
 0 <= y58_63 <= 1
 0 <= y30_57 <= 1
 0 <= y4_52 <= 1
 0 <= y64_72 <= 1
 0 <= y46_81 <= 1
 0 <= y68_70 <= 1
 0 <= y84_97 <= 1
 0 <= y59_81 <= 1
 0 <= y6_13 <= 1
 0 <= y21_43 <= 1
 0 <= y35_81 <= 1
 0 <= y22_32 <= 1
 0 <= y29_59 <= 1
 0 <= y49_87 <= 1
 0 <= y20_100 <= 1
 0 <= y44_93 <= 1
 0 <= y14_34 <= 1
 0 <= y59_86 <= 1
 0 <= y35_86 <= 1
 0 <= y32_52 <= 1
 0 <= y22_59 <= 1
 0 <= y39_68 <= 1
 0 <= y34_54 <= 1
 0 <= y17_22 <= 1
 0 <= y0_96 <= 1
 0 <= y28_94 <= 1
 0 <= y40_64 <= 1
 0 <= y39_51 <= 1
 0 <= y30_102 <= 1
 0 <= y32_85 <= 1
 0 <= y71_76 <= 1
 0 <= y68_82 <= 1
 0 <= y8_85 <= 1
 0 <= y21_61 <= 1
 0 <= y32_75 <= 1
 0 <= y55_62 <= 1
 0 <= y6_43 <= 1
 0 <= y4_79 <= 1
 0 <= y34_43 <= 1
 0 <= y25_97 <= 1
 0 <= y15_101 <= 1
 0 <= y31_95 <= 1
 0 <= y11_13 <= 1
 0 <= y43_89 <= 1
 0 <= y35_68 <= 1
 0 <= y61_102 <= 1
 0 <= y59_90 <= 1
 0 <= y1_35 <= 1
 0 <= y21_32 <= 1
 0 <= y16_27 <= 1
 0 <= y31_62 <= 1
 0 <= y14_98 <= 1
 0 <= y18_33 <= 1
 0 <= y40_78 <= 1
 0 <= y49_92 <= 1
 0 <= y10_21 <= 1
 0 <= y49_54 <= 1
 0 <= y50_53 <= 1
 0 <= y18_74 <= 1
 0 <= y8_67 <= 1
 0 <= y33_77 <= 1
 0 <= y9_73 <= 1
 0 <= y10_89 <= 1
 0 <= y60_67 <= 1
 0 <= y5_22 <= 1
 0 <= y59_73 <= 1
 0 <= y12_38 <= 1
 0 <= y4_91 <= 1
 0 <= y7_62 <= 1
 0 <= y50_93 <= 1
 0 <= y4_97 <= 1
 0 <= y8_100 <= 1
 0 <= y0_26 <= 1
 0 <= y40_97 <= 1
 0 <= y12_26 <= 1
 0 <= y53_97 <= 1
 0 <= y21_72 <= 1
 0 <= y0_48 <= 1
 0 <= y33_70 <= 1
 0 <= y96_100 <= 1
 0 <= y18_95 <= 1
 0 <= y1_61 <= 1
 0 <= y23_70 <= 1
Binaries
 x0  x1  x2  x3  x4  x5  x6  x7  x8  x9  x10  x11  x12  x13  x14  x15  x16 
 x17  x18  x19  x20  x21  x22  x23  x24  x25  x26  x27  x28  x29  x30  x31 
 x32  x33  x34  x35  x36  x37  x38  x39  x40  x41  x42  x43  x44  x45  x46 
 x47  x48  x49  x50  x51  x52  x53  x54  x55  x56  x57  x58  x59  x60  x61 
 x62  x63  x64  x65  x66  x67  x68  x69  x70  x71  x72  x73  x74  x75  x76 
 x77  x78  x79  x80  x81  x82  x83  x84  x85  x86  x87  x88  x89  x90  x91 
 x92  x93  x94  x95  x96  x97  x98  x99  x100  x101  x102  y14_74  y29_50 
 y13_70  y31_44  y48_86  y26_98  y55_78  y45_61  y1_28  y23_97  y17_90  y43_76 
 y44_86  y52_63  y20_32  y12_69  y0_67  y22_42  y54_87  y17_39  y35_52  y49_89 
 y64_95  y37_54  y20_82  y66_93  y58_72  y45_71  y35_70  y82_87  y28_63 
 y22_45  y5_43  y3_55  y10_47  y43_45  y4_100  y64_76  y28_98  y0_5  y2_7 
 y20_54  y3_22  y27_53  y37_77  y74_97  y23_33  y81_90  y3_77  y28_67  y5_79 
 y52_101  y15_19  y64_67  y42_95  y46_92  y40_99  y47_86  y8_76  y33_68  y3_31 
 y8_82  y3_37  y27_32  y62_70  y86_88  y8_33  y27_70  y1_70  y7_49  y6_78 
 y12_53  y38_46  y40_68  y43_49  y67_82  y19_67  y8_89  y45_76  y43_100 
 y62_73  y82_90  y37_89  y2_45  y30_56  y73_89  y1_95  y49_69  y28_81  y54_79 
 y9_17  y18_60  y66_91  y57_88  y67_97  y80_87  y35_72  y32_70  y59_94  y60_64 
 y82_85  y19_20  y74_100  y74_78  y6_82  y16_68  y30_84  y15_50  y22_75 
 y34_101  y23_69  y80_100  y34_95  y26_32  y36_89  y64_69  y18_91  y10_76 
 y23_66  y14_78  y34_48  y73_86  y51_78  y0_102  y7_51  y28_84  y40_70  y53_76 
 y7_64  y17_94  y2_23  y1_10  y87_93  y36_85  y51_87  y13_85  y37_40  y29_91 
 y63_95  y79_81  y12_46  y5_89  y6_89  y31_99  y7_87  y57_64  y30_31  y93_99 
 y26_39  y3_59  y74_98  y38_68  y72_78  y10_43  y31_36  y29_84  y26_86  y51_66 
 y74_86  y22_87  y19_83  y24_44  y37_73  y12_77  y0_75  y5_58  y9_63  y6_49 
 y38_81  y1_65  y0_97  y40_65  y3_87  y11_23  y20_74  y76_95  y43_77  y32_76 
 y12_68  y10_84  y31_42  y48_76  y26_88  y16_37  y6_66  y12_49  y40_72  y7_66 
 y41_76  y6_100  y45_55  y43_66  y90_98  y69_84  y58_75  y2_15  y20_46  y70_80 
 y68_96  y25_93  y6_9  y36_73  y26_77  y20_88  y55_93  y28_31  y85_90  y18_101 
 y50_102  y14_64  y74_96  y23_38  y25_72  y39_72  y36_94  y10_41  y6_60  y4_68 
 y43_57  y20_77  y8_75  y0_49  y51_54  y80_88  y5_30  y4_37  y9_61  y24_67 
 y27_71  y49_77  y5_73  y3_89  y31_83  y69_79  y67_83  y30_101  y42_99  y71_73 
 y45_77  y14_82  y27_38  y81_85  y99_102  y32_36  y24_74  y34_38  y50_76 
 y8_19  y17_56  y13_50  y76_80  y42_64  y40_80  y45_53  y35_99  y25_57  y45_70 
 y82_84  y28_56  y2_39  y21_23  y36_81  y51_65  y13_43  y39_56  y57_98  y18_99 
 y73_98  y4_18  y28_55  y12_82  y4_56  y28_45  y26_82  y40_56  y53_90  y27_102 
 y67_70  y39_49  y13_24  y20_62  y10_79  y34_89  y98_101  y20_36  y30_44 
 y35_42  y27_89  y33_46  y7_48  y50_83  y42_61  y74_93  y7_65  y56_78  y42_97 
 y47_68  y71_75  y23_88  y19_40  y0_32  y46_48  y1_45  y60_74  y58_63  y30_57 
 y4_52  y64_72  y46_81  y68_70  y84_97  y59_81  y6_13  y21_43  y35_81  y22_32 
 y29_59  y49_87  y20_100  y44_93  y14_34  y59_86  y35_86  y32_52  y22_59 
 y39_68  y34_54  y17_22  y0_96  y28_94  y40_64  y39_51  y30_102  y32_85 
 y71_76  y68_82  y8_85  y21_61  y32_75  y55_62  y6_43  y4_79  y34_43  y25_97 
 y15_101  y31_95  y11_13  y43_89  y35_68  y61_102  y59_90  y1_35  y21_32 
 y16_27  y31_62  y14_98  y18_33  y40_78  y49_92  y10_21  y49_54  y50_53 
 y18_74  y8_67  y33_77  y9_73  y10_89  y60_67  y5_22  y59_73  y12_38  y4_91 
 y7_62  y50_93  y4_97  y8_100  y0_26  y40_97  y12_26  y53_97  y21_72  y0_48 
 y33_70  y96_100  y18_95  y1_61  y23_70 
End
